n_res = 4;
rcap = [15, 14, 56, 53];
rtype = [1, 1, 2, 2];
n_tasks = 10;
modes = [ {1, 2, 3}, {4, 5, 6}, {7, 8, 9}, {10, 11, 12}, {13, 14, 15}, {16, 17, 18}, {19, 20, 21}, {22, 23, 24}, {25, 26, 27}, {28, 29, 30} ];
succ = [ {4, 9}, {8, 10}, {6, 7, 9}, {5, 8}, {7}, {10}, {10}, {}, {}, {} ];
n_opt = 30;
dur = [5, 6, 7, 1, 8, 9, 1, 5, 8, 5, 5, 8, 4, 4, 8, 2, 6, 10, 1, 6, 10, 2, 8, 10, 4, 7, 8, 1, 2, 5];
rreq = [|  6,  5,  4,  7,  7,  4, 10,  7,  5,  3,  3,  2,  8,  8,  7,  4,  3,  3,  1,  1,  1,  2,  2,  1,  4,  3,  2,  6,  5,  4
        |  3,  3,  2,  8,  7,  7,  8,  8,  7, 10,  9,  5,  7,  5,  5, 10,  9,  9,  2,  1,  1,  8,  6,  5,  8,  5,  2,  8,  6,  6
        |  9,  7,  6, 10,  9,  8,  4,  3,  3,  5,  5,  4,  7,  7,  7,  9,  7,  6,  4,  3,  2,  2,  1,  1,  4,  2,  1,  9,  7,  3
        |  6,  5,  4,  2,  2,  1,  5,  2,  2,  7,  8,  7,  6,  7,  4,  8,  6,  6,  7,  7,  7,  4,  3,  3,  2,  2,  1,  8,  8,  8 |];
